;;\{\{(\#|\^)\s*([\w\W]+?)\}\}\n?([\w\W]*?)\n?\{\{\/\s*\2\}\}

(set-option :produce-models true)
(set-option :inline-size-limit 10000)

(declare-const var0 String)

(assert (str.in.re var0 (re.* (re.range "\x01" "\xff"))))

(assert (str.in.re var0 (re.++ (re.*? re.allchar) (re.++ (re.++ (str.to.re "{") (re.++ (str.to.re "{") (re.++ ((_ re.capture 1) (re.union (str.to.re "#") (str.to.re "^"))) (re.++ (re.* (re.union (str.to.re " ") (re.union (str.to.re "\u{0b}") (re.union (str.to.re "\u{0a}") (re.union (str.to.re "\u{0d}") (re.union (str.to.re "\u{09}") (str.to.re "\u{0c}"))))))) (re.++ ((_ re.capture 2) (re.+? (re.union (re.union (re.range "a" "z") (re.union (re.range "A" "Z") (re.union (re.range "0" "9") (str.to.re "_")))) (re.inter (re.diff (re.range "\x01" "\xff") (re.range "a" "z")) (re.inter (re.diff (re.range "\x01" "\xff") (re.range "A" "Z")) (re.inter (re.diff (re.range "\x01" "\xff") (re.range "0" "9")) (re.diff (re.range "\x01" "\xff") (str.to.re "_")))))))) (re.++ (str.to.re "}") (re.++ (str.to.re "}") (re.++ (re.opt (str.to.re "\u{0a}")) (re.++ ((_ re.capture 3) (re.*? (re.union (re.union (re.range "a" "z") (re.union (re.range "A" "Z") (re.union (re.range "0" "9") (str.to.re "_")))) (re.inter (re.diff (re.range "\x01" "\xff") (re.range "a" "z")) (re.inter (re.diff (re.range "\x01" "\xff") (re.range "A" "Z")) (re.inter (re.diff (re.range "\x01" "\xff") (re.range "0" "9")) (re.diff (re.range "\x01" "\xff") (str.to.re "_")))))))) (re.++ (re.opt (str.to.re "\u{0a}")) (re.++ (str.to.re "{") (re.++ (str.to.re "{") (re.++ (str.to.re "/") (re.++ (re.* (re.union (str.to.re " ") (re.union (str.to.re "\u{0b}") (re.union (str.to.re "\u{0a}") (re.union (str.to.re "\u{0d}") (re.union (str.to.re "\u{09}") (str.to.re "\u{0c}"))))))) (re.++ (_ re.reference 2) (re.++ (str.to.re "}") (str.to.re "}"))))))))))))))))) re.all))))

(assert (> (str.len var0) 10))

(check-sat)
(get-model)
